SYSTEM = C:graphene
ISTART = 0
ISMEAR = 0
SIGMA  = 0.01
ENCUT = 800
AMIN  = 0.01
NSW   = 1
EDIFF = 1E-8

IBRION = -1
SYMPREC = 0.0001
NPAR = 6
ADDGRID = .TRUE.
LREAL = .FALSE. 
LWAVE = .FALSE.
ALGO = N
NELMIN = 5
PREC = Accurate

# vdw
#METAGGA = SCAN # use rbv10
#LASPH = T
#ADDGRID = T
#LUSE_VDW = T
#BPARAM = 15.7
