SYSTEM = C:graphene-relax-phonon
ISTART = 0
ISMEAR = 0
SIGMA  = 0.01
ENCUT = 800
AMIN  = 0.01
NSW   = 1
EDIFF = 1E-8
EDIFFG = -1E-8

IBRION = -1
ISIF = 3
SYMPREC = 0.0001
NPAR = 6
ADDGRID = .TRUE.
LREAL = .FALSE. 
LWAVE = .FALSE.
LCHARG = .FALSE.
ALGO = N
NELMIN = 5
PREC = Accurate

METAGGA = SCAN
LASPH = .TRUE.
LUSE_VDW = .TRUE.
BPARAM = 15.7
