C2_bilayer
1.0
2.130000 -1.229756 0.000000
2.130000 1.229756 0.000000
0.000000 0.000000 20.000000
C
4
Selective dynamics
direct
0.000000 0.000000 0.000000 F F F C
0.333333 0.333333 0.000000 F F F C
0.000000 0.000000 0.221934 F F T C
0.333333 0.333333 0.221934 F F T C

0.000000 0.000000 0.000000
0.000000 0.000000 0.000000
0.000000 0.000000 0.000000
0.000000 0.000000 0.000000
