WSe2 Mono                               
   1.00000000000000     
     3.2820000000000000    0.0000000000000000    0.0000000000000000
     1.6410000000000000    2.8404799999999999    0.0000000000000000
     0.0000000000000000    0.0000000000000000   20.0000000000000000
   W    Se
     1     2
Direct
  0.9999001443848595  0.0001997112302740 -0.0000000000000000
  0.3332769278075711  0.3334461443848649  0.9154590976749347
  0.3332769278075711  0.3334461443848649  0.0845409023250654
 
  0.00000000E+00  0.00000000E+00  0.00000000E+00
  0.00000000E+00  0.00000000E+00  0.00000000E+00
  0.00000000E+00  0.00000000E+00  0.00000000E+00
