WSe2 Mono
1.0
3.282000 0.000000 0.000000
1.641000 2.840480 0.000000
0.000000 0.000000 20.000000
W Se
1 2
direct
-0.000100 0.000200 0.000000 W
0.333277 0.333446 0.915459 Se
0.333277 0.333446 0.084541 Se

0.000000 0.000000 0.000000
0.000000 0.000000 0.000000
0.000000 0.000000 0.000000
