Graphene Bilayer Sheet
1.0
2.476833 0.000000 0.000000
1.238416 2.144937 0.000000
0.000000 0.000000 25.000000
C
4
Selective dynamics
direct
0.000000 0.000000 0.000000 F F F C
0.333314 0.333372 0.000000 F F T C
0.000000 0.000000 0.143245 F F T C
0.333314 0.333372 0.143245 F F T C

0.000000 0.000000 0.000000
0.000000 0.000000 0.000000
0.000000 0.000000 0.000000
0.000000 0.000000 0.000000
