MoS2                               
1.00000000000000     
3.1    0.0000000000000000    0.0000000000000000
-1.550000000000000   2.684678751731760      0.0
0.0000000000000000    0.0000000000000000   26.0000000000000000
   Mo   S 
     1     2
Direct
  0.0000000000000000  0.0000000000000000  0.1576498452150113
  0.3333333333333333  0.6666666666666667  0.0985460558499820
  0.3333333333333333  0.6666666666666667  0.2168045158188128
