generated by phonopy
   1.0
     6.3899999999999997   -3.6892680000000002    0.0000000000000000
     6.3899999999999997    3.6892680000000002    0.0000000000000000
     0.0000000000000000    0.0000000000000000   20.0000000000000000
C
  18
Direct
  0.0004690945499681  0.0000000000000000  0.0004690945499681
  0.3333333333333333  0.0000000000000000  0.0000000000000000
  0.6666666666666666  0.0000000000000000  0.0000000000000000
  0.0000000000000000  0.3333333333333333  0.0000000000000000
  0.3333333333333333  0.3333333333333333  0.0000000000000000
  0.6666666666666666  0.3333333333333333  0.0000000000000000
  0.0000000000000000  0.6666666666666666  0.0000000000000000
  0.3333333333333334  0.6666666666666666  0.0000000000000000
  0.6666666666666666  0.6666666666666666  0.0000000000000000
  0.1111110000000000  0.1111110000000000  0.0000000000000000
  0.4444443333333333  0.1111110000000000  0.0000000000000000
  0.7777776666666667  0.1111110000000000  0.0000000000000000
  0.1111110000000000  0.4444443333333333  0.0000000000000000
  0.4444443333333333  0.4444443333333333  0.0000000000000000
  0.7777776666666666  0.4444443333333333  0.0000000000000000
  0.1111110000000000  0.7777776666666667  0.0000000000000000
  0.4444443333333333  0.7777776666666667  0.0000000000000000
  0.7777776666666667  0.7777776666666667  0.0000000000000000
