C2_bilayer                              
   1.00000000000000     
     2.1299999999999999   -1.2297560000000001    0.0000000000000000
     2.1299999999999999    1.2297560000000001    0.0000000000000000
     0.0000000000000000    0.0000000000000000   20.0000000000000000
   C 
     4
Direct
  0.0000000000000000  0.0000000000000000  0.0000000000000000
  0.3333330000000032  0.3333330000000032  0.0000000000000000
  0.0000000000000000  0.0000000000000000  0.2500000000000000
  0.3333330000000032  0.3333330000000032  0.2500000000000000
 
  0.00000000E+00  0.00000000E+00  0.00000000E+00
  0.00000000E+00  0.00000000E+00  0.00000000E+00
  0.00000000E+00  0.00000000E+00  0.00000000E+00
  0.00000000E+00  0.00000000E+00  0.00000000E+00
