generated by phonopy
1.0
6.390000 -3.689268 0.000000
6.390000 3.689268 0.000000
0.000000 0.000000 20.000000
C
18
direct
0.000469 0.000000 0.000469 C
0.333333 0.000000 0.000000 C
0.666667 0.000000 0.000000 C
0.000000 0.333333 0.000000 C
0.333333 0.333333 0.000000 C
0.666667 0.333333 0.000000 C
0.000000 0.666667 0.000000 C
0.333333 0.666667 0.000000 C
0.666667 0.666667 0.000000 C
0.111111 0.111111 0.000000 C
0.444444 0.111111 0.000000 C
0.777778 0.111111 0.000000 C
0.111111 0.444444 0.000000 C
0.444444 0.444444 0.000000 C
0.777778 0.444444 0.000000 C
0.111111 0.777778 0.000000 C
0.444444 0.777778 0.000000 C
0.777778 0.777778 0.000000 C
