C2_AB
1.0
        2.4595119953         0.0000000000         0.0000000000
        1.2297562813         2.1299997051         0.0000000000
        0.0000000000         0.0000000000        20.0000000000
    C
    4
Direct
     0.000000000         0.000000000         0.000000000
     0.333332986         0.333332986         0.000000000
     0.333332986         0.333332986         0.200000003
     0.666665971         0.666665971         0.200000003
