generated by phonopy
   1.0
     9.8460000000000001    0.0000000000000000    0.0000000000000000
     4.9230000000000000    8.5214400000000001    0.0000000000000000
     0.0000000000000000    0.0000000000000000   20.0000000000000000
W Se
   9   18
Direct
  0.3333000000000000  0.0000666666666667  0.0000000000000000
  0.6666333333333333  0.0000666666666667  0.0000000000000000
  0.9999666666666667  0.0000666666666667  0.0000000000000000
  0.3333000000000000  0.3334000000000000  0.0000000000000000
  0.6666333333333334  0.3334000000000000  0.0000000000000000
  0.9999666666666668  0.3334000000000000  0.0000000000000000
  0.3333000000000000  0.6667333333333333  0.0000000000000000
  0.6666333333333333  0.6667333333333333  0.0000000000000000
  0.9999666666666666  0.6667333333333333  0.0000000000000000
  0.1110923333333333  0.1101325390853309  0.9154590000000001
  0.4444256666666667  0.1111486666666667  0.9154590000000001
  0.7777589999999999  0.1111486666666667  0.9154590000000001
  0.1110923333333333  0.4444819999999999  0.9154590000000001
  0.4444256666666667  0.4444819999999999  0.9154590000000001
  0.7777589999999998  0.4444819999999999  0.9154590000000001
  0.1110923333333334  0.7778153333333332  0.9154590000000001
  0.4444256666666668  0.7778153333333332  0.9154590000000001
  0.7777589999999999  0.7778153333333332  0.9154590000000001
  0.1110923333333333  0.1111486666666667  0.0845410000000000
  0.4444256666666667  0.1111486666666667  0.0845410000000000
  0.7777589999999999  0.1111486666666667  0.0845410000000000
  0.1110923333333333  0.4444819999999999  0.0845410000000000
  0.4444256666666667  0.4444819999999999  0.0845410000000000
  0.7777589999999998  0.4444819999999999  0.0845410000000000
  0.1110923333333334  0.7778153333333332  0.0845410000000000
  0.4444256666666668  0.7778153333333332  0.0845410000000000
  0.7777589999999999  0.7778153333333332  0.0845410000000000
