ADDGRID = True
ALGO = N
AMIN = 0.01
BPARAM = 15.7
EDIFF = 1e-08
EDIFFG = -1e-08
ENCUT = 800
IBRION = -1
ISMEAR = 0
ISTART = 0
LASPH = True
LCHARG = False
LREAL = False
LUSE_VDW = True
LWAVE = False
METAGGA = Scan
NELMIN = 5
NPAR = 6
NSW = 1
PREC = Accurate
SIGMA = 0.01
SYMPREC = 0.0001
SYSTEM = C:graphene-relax-phonon
