generated by phonopy                    
   1.00000000000000     
     6.3899999999999997   -3.6892680000000002    0.0000000000000000
     6.3899999999999997    3.6892680000000002    0.0000000000000000
     0.0000000000000000    0.0000000000000000   20.0000000000000000
   C 
    18
Direct
  0.0004690945499704  0.0000000000000000  0.0004690945499704
  0.3333333333333357  0.0000000000000000  0.0000000000000000
  0.6666666666666643  0.0000000000000000  0.0000000000000000
  0.0000000000000000  0.3333333333333357  0.0000000000000000
  0.3333333333333357  0.3333333333333357  0.0000000000000000
  0.6666666666666643  0.3333333333333357  0.0000000000000000
  0.0000000000000000  0.6666666666666643  0.0000000000000000
  0.3333333333333357  0.6666666666666643  0.0000000000000000
  0.6666666666666643  0.6666666666666643  0.0000000000000000
  0.1111110000000011  0.1111110000000011  0.0000000000000000
  0.4444443333333368  0.1111110000000011  0.0000000000000000
  0.7777776666666654  0.1111110000000011  0.0000000000000000
  0.1111110000000011  0.4444443333333368  0.0000000000000000
  0.4444443333333368  0.4444443333333368  0.0000000000000000
  0.7777776666666654  0.4444443333333368  0.0000000000000000
  0.1111110000000011  0.7777776666666654  0.0000000000000000
  0.4444443333333368  0.7777776666666654  0.0000000000000000
  0.7777776666666654  0.7777776666666654  0.0000000000000000
 
  0.00000000E+00  0.00000000E+00  0.00000000E+00
  0.00000000E+00  0.00000000E+00  0.00000000E+00
  0.00000000E+00  0.00000000E+00  0.00000000E+00
  0.00000000E+00  0.00000000E+00  0.00000000E+00
  0.00000000E+00  0.00000000E+00  0.00000000E+00
  0.00000000E+00  0.00000000E+00  0.00000000E+00
  0.00000000E+00  0.00000000E+00  0.00000000E+00
  0.00000000E+00  0.00000000E+00  0.00000000E+00
  0.00000000E+00  0.00000000E+00  0.00000000E+00
  0.00000000E+00  0.00000000E+00  0.00000000E+00
  0.00000000E+00  0.00000000E+00  0.00000000E+00
  0.00000000E+00  0.00000000E+00  0.00000000E+00
  0.00000000E+00  0.00000000E+00  0.00000000E+00
  0.00000000E+00  0.00000000E+00  0.00000000E+00
  0.00000000E+00  0.00000000E+00  0.00000000E+00
  0.00000000E+00  0.00000000E+00  0.00000000E+00
  0.00000000E+00  0.00000000E+00  0.00000000E+00
  0.00000000E+00  0.00000000E+00  0.00000000E+00
