C2                                      
   1.00000000000000     
     2.1299999999999999   -1.2297560000000001    0.0000000000000000
     2.1299999999999999    1.2297560000000001    0.0000000000000000
     0.0000000000000000    0.0000000000000000   20.0000000000000000
   C 
     2
Direct
  0.0050017486254666  0.0100008903008460 -0.0000000000000000
  0.3383312513745347  0.3433321096991603  0.0000000000000000
 
  0.00000000E+00  0.00000000E+00  0.00000000E+00
  0.00000000E+00  0.00000000E+00  0.00000000E+00
