generated by phonopy                    
   1.00000000000000     
     6.3899999999999997   -3.6892680000000002    0.0000000000000000
     6.3899999999999997    3.6892680000000002    0.0000000000000000
     0.0000000000000000    0.0000000000000000   20.0000000000000000
   C 
    36
Direct
  0.9995309999999975  0.0000000000000000  0.9995309999999975
  0.3333330000000032  0.0000000000000000  0.0000000000000000
  0.6666669999999968  0.0000000000000000  0.0000000000000000
  0.0000000000000000  0.3333330000000032  0.0000000000000000
  0.3333330000000032  0.3333330000000032  0.0000000000000000
  0.6666669999999968  0.3333330000000032  0.0000000000000000
  0.0000000000000000  0.6666669999999968  0.0000000000000000
  0.3333330000000032  0.6666669999999968  0.0000000000000000
  0.6666669999999968  0.6666669999999968  0.0000000000000000
  0.1111110000000011  0.1111110000000011  0.0000000000000000
  0.4444439999999972  0.1111110000000011  0.0000000000000000
  0.7777779999999979  0.1111110000000011  0.0000000000000000
  0.1111110000000011  0.4444439999999972  0.0000000000000000
  0.4444439999999972  0.4444439999999972  0.0000000000000000
  0.7777779999999979  0.4444439999999972  0.0000000000000000
  0.1111110000000011  0.7777779999999979  0.0000000000000000
  0.4444439999999972  0.7777779999999979  0.0000000000000000
  0.7777779999999979  0.7777779999999979  0.0000000000000000
  0.0000000000000000  0.0000000000000000  0.2219339999999974
  0.3333330000000032  0.0000000000000000  0.2219339999999974
  0.6666669999999968  0.0000000000000000  0.2219339999999974
  0.0000000000000000  0.3333330000000032  0.2219339999999974
  0.3333330000000032  0.3333330000000032  0.2219339999999974
  0.6666669999999968  0.3333330000000032  0.2219339999999974
  0.0000000000000000  0.6666669999999968  0.2219339999999974
  0.3333330000000032  0.6666669999999968  0.2219339999999974
  0.6666669999999968  0.6666669999999968  0.2219339999999974
  0.1111110000000011  0.1111110000000011  0.2219339999999974
  0.4444439999999972  0.1111110000000011  0.2219339999999974
  0.7777779999999979  0.1111110000000011  0.2219339999999974
  0.1111110000000011  0.4444439999999972  0.2219339999999974
  0.4444439999999972  0.4444439999999972  0.2219339999999974
  0.7777779999999979  0.4444439999999972  0.2219339999999974
  0.1111110000000011  0.7777779999999979  0.2219339999999974
  0.4444439999999972  0.7777779999999979  0.2219339999999974
  0.7777779999999979  0.7777779999999979  0.2219339999999974
 
  0.00000000E+00  0.00000000E+00  0.00000000E+00
  0.00000000E+00  0.00000000E+00  0.00000000E+00
  0.00000000E+00  0.00000000E+00  0.00000000E+00
  0.00000000E+00  0.00000000E+00  0.00000000E+00
  0.00000000E+00  0.00000000E+00  0.00000000E+00
  0.00000000E+00  0.00000000E+00  0.00000000E+00
  0.00000000E+00  0.00000000E+00  0.00000000E+00
  0.00000000E+00  0.00000000E+00  0.00000000E+00
  0.00000000E+00  0.00000000E+00  0.00000000E+00
  0.00000000E+00  0.00000000E+00  0.00000000E+00
  0.00000000E+00  0.00000000E+00  0.00000000E+00
  0.00000000E+00  0.00000000E+00  0.00000000E+00
  0.00000000E+00  0.00000000E+00  0.00000000E+00
  0.00000000E+00  0.00000000E+00  0.00000000E+00
  0.00000000E+00  0.00000000E+00  0.00000000E+00
  0.00000000E+00  0.00000000E+00  0.00000000E+00
  0.00000000E+00  0.00000000E+00  0.00000000E+00
  0.00000000E+00  0.00000000E+00  0.00000000E+00
  0.00000000E+00  0.00000000E+00  0.00000000E+00
  0.00000000E+00  0.00000000E+00  0.00000000E+00
  0.00000000E+00  0.00000000E+00  0.00000000E+00
  0.00000000E+00  0.00000000E+00  0.00000000E+00
  0.00000000E+00  0.00000000E+00  0.00000000E+00
  0.00000000E+00  0.00000000E+00  0.00000000E+00
  0.00000000E+00  0.00000000E+00  0.00000000E+00
  0.00000000E+00  0.00000000E+00  0.00000000E+00
  0.00000000E+00  0.00000000E+00  0.00000000E+00
  0.00000000E+00  0.00000000E+00  0.00000000E+00
  0.00000000E+00  0.00000000E+00  0.00000000E+00
  0.00000000E+00  0.00000000E+00  0.00000000E+00
  0.00000000E+00  0.00000000E+00  0.00000000E+00
  0.00000000E+00  0.00000000E+00  0.00000000E+00
  0.00000000E+00  0.00000000E+00  0.00000000E+00
  0.00000000E+00  0.00000000E+00  0.00000000E+00
  0.00000000E+00  0.00000000E+00  0.00000000E+00
  0.00000000E+00  0.00000000E+00  0.00000000E+00
