ADDGRID = True
ALGO = N
AMIN = 0.01
EDIFF = 1e-08
EDIFFG = -1e-08
ENCUT = 800
IBRION = -1
ICHARG = 2
ISMEAR = 0
ISTART = 0
LCHARG = False
LREAL = False
LWAVE = False
NELMIN = 5
NPAR = 6
NSW = 0
PREC = Accurate
SIGMA = 0.01
SYMPREC = 0.0001
SYSTEM = C-4
