generated by phonopy
1.0
9.846000 0.000000 0.000000
4.923000 8.521440 0.000000
0.000000 0.000000 20.000000
W Se
9 18
direct
0.333300 0.999618 0.999551 W
0.666633 0.000067 0.000000 W
0.999967 0.000067 0.000000 W
0.333300 0.333400 0.000000 W
0.666633 0.333400 0.000000 W
0.999967 0.333400 0.000000 W
0.333300 0.666733 0.000000 W
0.666633 0.666733 0.000000 W
0.999967 0.666733 0.000000 W
0.111092 0.111149 0.915459 Se
0.444426 0.111149 0.915459 Se
0.777759 0.111149 0.915459 Se
0.111092 0.444482 0.915459 Se
0.444426 0.444482 0.915459 Se
0.777759 0.444482 0.915459 Se
0.111092 0.777815 0.915459 Se
0.444426 0.777815 0.915459 Se
0.777759 0.777815 0.915459 Se
0.111092 0.111149 0.084541 Se
0.444426 0.111149 0.084541 Se
0.777759 0.111149 0.084541 Se
0.111092 0.444482 0.084541 Se
0.444426 0.444482 0.084541 Se
0.777759 0.444482 0.084541 Se
0.111092 0.777815 0.084541 Se
0.444426 0.777815 0.084541 Se
0.777759 0.777815 0.084541 Se
