ADDGRID = True
ALGO = N
AMIN = 0.01
EDIFF = 1e-08
EDIFFG = -1e-08
ENCUT = 800
IBRION = -1
ICHARG = 1
ISMEAR = 0
ISTART = 0
LCHARG = True
LREAL = False
LWAVE = False
NEDOS = 6001
NELMIN = 5
NPAR = 6
NSW = 0
PREC = Accurate
SIGMA = 0.1
SYMPREC = 0.0001
SYSTEM = W-1, se-2
