C2                                      
   1.00000000000000     
     2.1299999999999999   -1.2297560000000001    0.0000000000000000
     2.1299999999999999    1.2297560000000001    0.0000000000000000
     0.0000000000000000    0.0000000000000000   20.0000000000000000
   C 
     2
Direct
  0.0050017477151559  0.0100008841127790 -0.0000000000000000
  0.3383312522848453  0.3433321158872274  0.0000000000000000
 
  0.00000000E+00  0.00000000E+00  0.00000000E+00
  0.00000000E+00  0.00000000E+00  0.00000000E+00
