generated by phonopy                    
   1.00000000000000     
     9.8460000000000001    0.0000000000000000    0.0000000000000000
     4.9230000000000000    8.5214400000000001    0.0000000000000000
     0.0000000000000000    0.0000000000000000   20.0000000000000000
   W    Se
     9    18
Direct
  0.3333000000000013  0.0000670000000014  0.0000000000000000
  0.6666329999999974  0.0000670000000014  0.0000000000000000
  0.9999669999999981  0.0000670000000014  0.0000000000000000
  0.3333000000000013  0.3333999999999975  0.0000000000000000
  0.6666329999999974  0.3333999999999975  0.0000000000000000
  0.9999669999999981  0.3333999999999975  0.0000000000000000
  0.3333000000000013  0.6667330000000007  0.0000000000000000
  0.6666329999999974  0.6667330000000007  0.0000000000000000
  0.9999669999999981  0.6667330000000007  0.0000000000000000
  0.1110919999999993  0.1121649999999974  0.9154589999999985
  0.4444260000000000  0.1111489999999975  0.9154589999999985
  0.7777590000000032  0.1111489999999975  0.9154589999999985
  0.1110919999999993  0.4444820000000007  0.9154589999999985
  0.4444260000000000  0.4444820000000007  0.9154589999999985
  0.7777590000000032  0.4444820000000007  0.9154589999999985
  0.1110919999999993  0.7778149999999968  0.9154589999999985
  0.4444260000000000  0.7778149999999968  0.9154589999999985
  0.7777590000000032  0.7778149999999968  0.9154589999999985
  0.1110919999999993  0.1111489999999975  0.0845410000000015
  0.4444260000000000  0.1111489999999975  0.0845410000000015
  0.7777590000000032  0.1111489999999975  0.0845410000000015
  0.1110919999999993  0.4444820000000007  0.0845410000000015
  0.4444260000000000  0.4444820000000007  0.0845410000000015
  0.7777590000000032  0.4444820000000007  0.0845410000000015
  0.1110919999999993  0.7778149999999968  0.0845410000000015
  0.4444260000000000  0.7778149999999968  0.0845410000000015
  0.7777590000000032  0.7778149999999968  0.0845410000000015
 
  0.00000000E+00  0.00000000E+00  0.00000000E+00
  0.00000000E+00  0.00000000E+00  0.00000000E+00
  0.00000000E+00  0.00000000E+00  0.00000000E+00
  0.00000000E+00  0.00000000E+00  0.00000000E+00
  0.00000000E+00  0.00000000E+00  0.00000000E+00
  0.00000000E+00  0.00000000E+00  0.00000000E+00
  0.00000000E+00  0.00000000E+00  0.00000000E+00
  0.00000000E+00  0.00000000E+00  0.00000000E+00
  0.00000000E+00  0.00000000E+00  0.00000000E+00
  0.00000000E+00  0.00000000E+00  0.00000000E+00
  0.00000000E+00  0.00000000E+00  0.00000000E+00
  0.00000000E+00  0.00000000E+00  0.00000000E+00
  0.00000000E+00  0.00000000E+00  0.00000000E+00
  0.00000000E+00  0.00000000E+00  0.00000000E+00
  0.00000000E+00  0.00000000E+00  0.00000000E+00
  0.00000000E+00  0.00000000E+00  0.00000000E+00
  0.00000000E+00  0.00000000E+00  0.00000000E+00
  0.00000000E+00  0.00000000E+00  0.00000000E+00
  0.00000000E+00  0.00000000E+00  0.00000000E+00
  0.00000000E+00  0.00000000E+00  0.00000000E+00
  0.00000000E+00  0.00000000E+00  0.00000000E+00
  0.00000000E+00  0.00000000E+00  0.00000000E+00
  0.00000000E+00  0.00000000E+00  0.00000000E+00
  0.00000000E+00  0.00000000E+00  0.00000000E+00
  0.00000000E+00  0.00000000E+00  0.00000000E+00
  0.00000000E+00  0.00000000E+00  0.00000000E+00
  0.00000000E+00  0.00000000E+00  0.00000000E+00
