WSe2 Mono                               
   1.00000000000000     
     3.2820000000000000    0.0000000000000000    0.0000000000000000
     1.6410000000000000    2.8404799999999999    0.0000000000000000
     0.0000000000000000    0.0000000000000000   20.0000000000000000
   W    Se
     1     2
Direct
  0.9998999999999967  0.0001999999999995  0.0000000000000000
  0.3332770000000025  0.3334460000000021  0.9154589999999985
  0.3332770000000025  0.3334460000000021  0.0845410000000015
 
  0.00000000E+00  0.00000000E+00  0.00000000E+00
  0.00000000E+00  0.00000000E+00  0.00000000E+00
  0.00000000E+00  0.00000000E+00  0.00000000E+00
